NAME : ftv64.tour
COMMENT : Optimum tour for ftv64.tsp (Length 1839)
TYPE : TOUR
DIMENSION : 65
TOUR_SECTION  
45
12
46
13
36
21
22
49
50
23
60
24
31
54
32
63
53
52
25
26
64
30
56
34
57
65
39
3
5
40
6
7
58
59
35
33
55
29
51
28
27
20
47
11
61
14
17
18
19
62
2
38
4
1
16
15
48
8
37
9
41
42
10
43
44
-1
EOF
